1244
0 66 160 262 429 450 542 553 617 678 
0 66 88 118 132 198 321 465 502 628 
0 77 167 273 288 376 481 542 549 594 
66 93 167 285 450 548 617 626 731 783 
0 88 132 201 262 359 421 481 548 724 
0 71 247 285 338 480 594 644 722 775 
93 198 255 321 421 635 670 693 754 771 
95 184 192 288 597 697 725 813 889 916 
66 192 347 375 665 751 760 815 895 946 
188 356 398 481 662 715 731 813 871 914 
0 375 466 553 619 624 715 768 837 972 
72 227 565 662 729 858 895 914 973 1036 
0 247 534 644 783 946 1029 1057 1062 1135 
229 662 771 858 1032 1103 1132 1144 1177 1232 
423 751 768 889 972 1012 1035 1100 1132 1139 
